0000000000000000
0000000000000000
0000001100000000
0000010010000000
0000100001000000
0001000001000000
0011000000100000
0010000000100000
0000000000010000
0000000000010000
0000000000010000
0000011000110000
0001100100100000
0001000011000000
0000000000000000
0000000000000000
